<number of tasks>
20

<cycle time>
25

<task times>
1 3
2 2
3 3
4 4
5 5
6 3
7 2
8 4
9 6
10 3
11 2
12 5
13 3
14 4
15 2
16 3
17 6
18 4
19 2
20 5

<precedence relations>
2,1
3,1
4,2
5,2
6,3
7,3
8,4
9,5
10,6
11,7
12,8
13,9
14,10
15,12
15,14
16,11
17,13
18,15
19,16
20,18
20,17

<number of states>
2

<states>
1
2

<state transitions>
1,1:2
1,2:1
1,3:1
1,4:1
1,5:1
1,6:1
1,7:2
1,8:2
1,9:2
1,10:2
1,11:2
1,12:2
1,13:1
1,14:1
1,15:2
1,16:1
1,17:2
1,18:2
1,19:1
1,20:2
2,6:1
2,7:2
2,8:2
2,9:2
2,10:1
2,1:2
2,2:1
2,3:1
2,4:1
2,5:1
2,11:2
2,12:2
2,13:1
2,14:1
2,15:2
2,16:1
2,17:2
2,18:2
2,19:1
2,20:2

<setup times state forward>
1,1:0
1,2:0
1,3:0
1,4:0
1,5:0
1,6:3
1,7:3
1,8:3
1,9:3
1,10:3
1,11:3
1,12:3
1,13:0
1,14:0
1,15:3
1,16:0
1,17:3
1,18:3
1,19:0
1,20:3
2,6:0
2,7:0
2,8:0
2,9:0
2,10:0
2,1:3
2,2:3
2,3:3
2,4:3
2,5:3
2,11:0
2,12:0
2,13:3
2,14:3
2,15:0
2,16:3
2,17:0
2,18:0
2,19:3
2,20:0

<setup times state cycle>
1,1:0
1,2:3
2,1:2
2,2:0
